SLURM_JOB_ID: 55257836
SLURM_JOB_USER: vsc34888
SLURM_JOB_ACCOUNT: lp_elect_gen_modeling
SLURM_JOB_NAME: RTS24_full_MILP_DC
SLURM_CLUSTER_NAME: genius
SLURM_JOB_PARTITION: batch
SLURM_NNODES: 1
SLURM_NODELIST: r22i13n12
SLURM_JOB_CPUS_PER_NODE: 36
Date: Mon Oct  2 16:04:13 CEST 2023
Walltime: 01-00:00:00
========================================================================
Activation OK
Starting runs

 #### Academic research license - for non-commercial use only #### 

RTS24
/vsc-hard-mounts/leuven-data/348/vsc34888/JointResearch/05.Models/06.Benchmarking/A.The_full_year_MILP
gurobi
['oSN_Main_DCOPF.py', '--case', 'RTS24']
Namespace(case='RTS24', dir='/vsc-hard-mounts/leuven-data/348/vsc34888/JointResearch/05.Models/06.Benchmarking/A.The_full_year_MILP', solver='gurobi')
Namespace(case='RTS24', dir='/vsc-hard-mounts/leuven-data/348/vsc34888/JointResearch/05.Models/06.Benchmarking/A.The_full_year_MILP', solver='gurobi')
Reading    input data                 ...  1 s
Setting up input data                 ...  4 s
Generating objective function         ...  1 s
Generating operation & investment     ...  0 s
Generating balance                    ...  10 s
Generating storage operation          ...  0 s
Generating generation commitment      ...  6 s
Generating generation capacity        ...  1 s
Generating network    capacity        ...  6 s
Generating network    constraints     ...  18 s
Econometric analysis  constraints     ...  0 s
Writing LP file                       ...  45 s
Set parameter Username
Set parameter TokenServer to value "SET-S-ME-LM3.luna.kuleuven.be"
Read LP format model from file /tmp/tmptghi3c2n.pyomo.lp
Reading time = 3.55 seconds
x1: 1295843 rows, 755813 columns, 3497544 nonzeros
Set parameter QCPDual to value 1
Set parameter LogFile to value "/vsc-hard-mounts/leuven-data/348/vsc34888/JointResearch/05.Models/06.Benchmarking/A.The_full_year_MILP/RTS24/openStarNet_RTS24.log"
Set parameter Method to value 2
Set parameter MIPFocus to value 1
Set parameter Presolve to value 2
Set parameter RINS to value 100
Set parameter MIPGap to value 0.01
Set parameter Threads to value 36
Set parameter TimeLimit to value 604800
Set parameter IterationLimit to value 760000000
Gurobi Optimizer version 9.5.0 build v9.5.0rc5 (linux64)
Thread count: 36 physical cores, 36 logical processors, using up to 36 threads
Optimize a model with 1295843 rows, 755813 columns and 3497544 nonzeros
Model fingerprint: 0x203a39e9
Variable types: 755774 continuous, 39 integer (39 binary)
Coefficient statistics:
  Matrix range     [2e-02, 3e+02]
  Objective range  [1e+00, 1e+00]
  Bounds range     [7e-05, 2e+00]
  RHS range        [7e-05, 1e+00]
Presolve removed 602787 rows and 267162 columns (presolve time = 5s) ...
Presolve removed 631907 rows and 325402 columns
Presolve time: 9.06s
Presolved: 663936 rows, 430411 columns, 2314436 nonzeros
Variable types: 430372 continuous, 39 integer (39 binary)
Root relaxation presolved: 663936 rows, 430411 columns, 2314436 nonzeros

Root barrier log...

Ordering time: 0.20s

Barrier statistics:
 Dense cols : 39
 AA' NZ     : 4.913e+06
 Factor NZ  : 1.681e+07 (roughly 600 MB of memory)
 Factor Ops : 5.535e+08 (less than 1 second per iteration)
 Threads    : 35

                  Objective                Residual
Iter       Primal          Dual         Primal    Dual     Compl     Time
   0   6.42576121e+05 -2.52614426e+07  4.50e+00 1.78e+00  5.30e+01    15s
   1   8.42612580e+04 -6.89093731e+06  4.59e-01 1.03e-08  7.05e+00    16s
   2   2.37197426e+04 -7.92230503e+05  1.78e-02 1.17e-09  6.21e-01    16s
   3   9.92148327e+03 -6.98983056e+04  8.38e-04 1.16e-10  5.90e-02    17s
   4   1.00120330e+03 -5.18120409e+03  8.36e-13 8.19e-12  4.56e-03    17s
   5   6.79248463e+02 -1.58420062e+03  3.56e-13 3.17e-12  1.67e-03    17s
   6   5.01630221e+02 -6.93280809e+02  2.51e-13 1.31e-12  8.81e-04    18s
   7   3.74756255e+02 -2.74850927e+02  1.84e-13 6.96e-13  4.79e-04    18s
   8   2.67208991e+02 -2.97325828e+01  1.99e-13 7.11e-13  2.19e-04    18s
   9   2.19049313e+02  4.11877733e+01  2.34e-13 2.63e-13  1.31e-04    19s
  10   1.82897405e+02  8.57386434e+01  6.35e-13 3.27e-13  7.17e-05    19s
  11   1.65840544e+02  1.00212523e+02  1.25e-12 2.88e-13  4.84e-05    19s
  12   1.58194268e+02  1.11628019e+02  1.18e-12 2.27e-13  3.43e-05    20s
  13   1.54939047e+02  1.13854285e+02  2.27e-12 2.06e-13  3.03e-05    20s
  14   1.50222291e+02  1.18416503e+02  2.58e-12 3.91e-13  2.35e-05    20s
  15   1.45017631e+02  1.22667851e+02  5.66e-12 1.92e-13  1.65e-05    21s
  16   1.40280433e+02  1.26154335e+02  6.54e-12 2.20e-13  1.04e-05    21s
  17   1.37467492e+02  1.27254487e+02  7.00e-12 2.27e-13  7.53e-06    22s
  18   1.34869965e+02  1.28312173e+02  1.68e-11 2.81e-13  4.84e-06    22s
  19   1.34418077e+02  1.28731757e+02  1.57e-11 4.41e-13  4.19e-06    23s
  20   1.32828671e+02  1.28937804e+02  5.36e-11 2.45e-13  2.87e-06    23s
  21   1.32058425e+02  1.29152934e+02  3.85e-11 2.49e-13  2.14e-06    23s
  22   1.31936499e+02  1.29348318e+02  3.61e-11 4.12e-13  1.91e-06    24s
  23   1.31691223e+02  1.29529813e+02  3.13e-11 1.92e-13  1.59e-06    24s
  24   1.31211574e+02  1.29738730e+02  4.55e-11 2.34e-13  1.09e-06    25s
  25   1.30918999e+02  1.29815110e+02  1.45e-10 2.70e-13  8.14e-07    25s
  26   1.30698445e+02  1.29846371e+02  1.24e-10 2.91e-13  6.28e-07    25s
  27   1.30531145e+02  1.29895421e+02  2.86e-10 2.77e-13  4.69e-07    26s
  28   1.30449577e+02  1.29972985e+02  2.38e-10 7.39e-13  3.52e-07    26s
  29   1.30245993e+02  1.30030683e+02  1.17e-10 2.13e-13  1.59e-07    27s
  30   1.30176248e+02  1.30081309e+02  4.80e-10 3.91e-13  7.00e-08    27s
  31   1.30114060e+02  1.30086165e+02  1.11e-09 1.49e-13  2.06e-08    28s
  32   1.30096180e+02  1.30088624e+02  5.02e-10 1.71e-13  5.57e-09    28s
  33   1.30091429e+02  1.30089620e+02  4.94e-09 5.13e-13  1.33e-09    28s
  34   1.30090289e+02  1.30089896e+02  1.26e-09 1.95e-13  2.90e-10    29s
  35   1.30089998e+02  1.30089907e+02  1.57e-09 5.26e-13  6.72e-11    29s
  36   1.30089915e+02  1.30089912e+02  1.01e-09 2.81e-13  1.86e-12    30s
  37   1.30089913e+02  1.30089913e+02  2.64e-08 1.04e-12  4.57e-13    30s

Barrier solved model in 37 iterations and 29.94 seconds (20.08 work units)
Optimal objective 1.30089913e+02


Root crossover log...

  139544 DPushes remaining with DInf 0.0000000e+00                31s
       0 DPushes remaining with DInf 0.0000000e+00                31s

   25609 PPushes remaining with PInf 1.4544757e-05                31s
     817 PPushes remaining with PInf 0.0000000e+00                35s
       0 PPushes remaining with PInf 0.0000000e+00                36s

  Push phase complete: Pinf 0.0000000e+00, Dinf 4.7534798e-12     36s


Root simplex log...

Iteration    Objective       Primal Inf.    Dual Inf.      Time
   34315    1.3008991e+02   0.000000e+00   0.000000e+00     36s
   34315    1.3008991e+02   0.000000e+00   0.000000e+00     37s

Root relaxation: objective 1.300899e+02, 34315 iterations, 24.93 seconds (19.60 work units)

    Nodes    |    Current Node    |     Objective Bounds      |     Work
 Expl Unexpl |  Obj  Depth IntInf | Incumbent    BestBd   Gap | It/Node Time

     0     0  130.08991    0    4          -  130.08991      -     -   37s
H    0     0                     247.9406628  130.08991  47.5%     -   53s
H    0     0                     138.5837617  130.08991  6.13%     -   62s
     0     0  135.89496    0    6  138.58376  135.89496  1.94%     -  132s
     0     0  135.91257    0    6  138.58376  135.91257  1.93%     -  140s
     0     0  135.91257    0    6  138.58376  135.91257  1.93%     -  142s
     0     0  136.04010    0    4  138.58376  136.04010  1.84%     -  156s
     0     0  136.04027    0    4  138.58376  136.04027  1.84%     -  162s
     0     0  136.09575    0    4  138.58376  136.09575  1.80%     -  176s
     0     0  136.09584    0    4  138.58376  136.09584  1.80%     -  182s
     0     0  136.13958    0    4  138.58376  136.13958  1.76%     -  207s
     0     0  136.13969    0    4  138.58376  136.13969  1.76%     -  213s
     0     0  136.14544    0    4  138.58376  136.14544  1.76%     -  250s
     0     0  136.14544    0    4  138.58376  136.14544  1.76%     -  396s
     0     0  136.14544    0    4  138.58376  136.14544  1.76%     -  445s
     0     0  136.14544    0    4  138.58376  136.14544  1.76%     -  456s
     0     0  136.14815    0    4  138.58376  136.14815  1.76%     -  459s
     0     0  136.14943    0    4  138.58376  136.14943  1.76%     -  461s
     0     0  136.15006    0    4  138.58376  136.15006  1.76%     -  476s
     0     0  136.15033    0    4  138.58376  136.15033  1.76%     -  480s
     0     0  136.15148    0    4  138.58376  136.15148  1.76%     -  485s
     0     0  136.15149    0    4  138.58376  136.15149  1.76%     -  489s
     0     0  136.15149    0    4  138.58376  136.15149  1.76%     -  493s
     0     0  136.15149    0    4  138.58376  136.15149  1.76%     -  506s
     0     2  136.15149    0    4  138.58376  136.15149  1.76%     -  605s
     1     3     cutoff    1       138.58376  136.15338  1.75% 28080  681s
     3     2     cutoff    2       138.58376  137.11711  1.06% 11122  691s

Cutting planes:
  Gomory: 1
  MIR: 4634

Explored 5 nodes (150290 simplex iterations) in 691.30 seconds (1108.19 work units)
Thread count was 36 (of 36 available processors)

Solution count 2: 138.584 247.941 

Optimal solution found (tolerance 1.00e-02)
Best objective 1.385837617100e+02, best bound 1.384116910276e+02, gap 0.1242%
Termination condition:  optimal
# ==========================================================
# = Solver Results                                         =
# ==========================================================
# ----------------------------------------------------------
#   Problem Information
# ----------------------------------------------------------
Problem: 
- Name: x1
  Lower bound: 138.411691027608
  Upper bound: 138.5837617100243
  Number of objectives: 1
  Number of constraints: 1295843
  Number of variables: 755813
  Number of binary variables: 39
  Number of integer variables: 39
  Number of continuous variables: 755774
  Number of nonzeros: 3497544
  Sense: minimize
# ----------------------------------------------------------
#   Solver Information
# ----------------------------------------------------------
Solver: 
- Status: ok
  Return code: 0
  Message: Model was solved to optimality (subject to tolerances), and an optimal solution is available.
  Termination condition: optimal
  Termination message: Model was solved to optimality (subject to tolerances), and an optimal solution is available.
  Wall time: 691.3146469593048
  Error rc: 0
  Time: 699.5168089866638
# ----------------------------------------------------------
#   Solution Information
# ----------------------------------------------------------
Solution: 
- number of solutions: 0
  number of solutions displayed: 0
# ============================================================================= #
# ============================================================================= #
fixing: vNetworkInvest[2030,N_116,N_117,cac1]
fixing: vNetworkInvest[2030,N_114,N_116,cac1]
fixing: vNetworkInvest[2030,N_104,N_109,cac1]
fixing: vNetworkInvest[2030,N_109,N_111,cac1]
fixing: vNetworkInvest[2030,N_119,N_120,cac1]
fixing: vNetworkInvest[2030,N_112,N_113,cac1]
fixing: vNetworkInvest[2030,N_115,N_116,cac1]
fixing: vNetworkInvest[2030,N_120,N_123,cac2]
fixing: vNetworkInvest[2030,N_113,N_123,cac1]
fixing: vNetworkInvest[2030,N_112,N_123,cac1]
fixing: vNetworkInvest[2030,N_101,N_105,cac1]
fixing: vNetworkInvest[2030,N_108,N_109,cac1]
fixing: vNetworkInvest[2030,N_118,N_121,cac2]
fixing: vNetworkInvest[2030,N_107,N_108,cac1]
fixing: vNetworkInvest[2030,N_115,N_121,cac1]
fixing: vNetworkInvest[2030,N_110,N_112,cac1]
fixing: vNetworkInvest[2030,N_103,N_109,cac1]
fixing: vNetworkInvest[2030,N_101,N_103,cac1]
fixing: vNetworkInvest[2030,N_116,N_119,cac1]
fixing: vNetworkInvest[2030,N_108,N_110,cac1]
fixing: vNetworkInvest[2030,N_119,N_120,cac2]
fixing: vNetworkInvest[2030,N_110,N_111,cac1]
fixing: vNetworkInvest[2030,N_117,N_118,cac1]
fixing: vNetworkInvest[2030,N_117,N_122,cac1]
fixing: vNetworkInvest[2030,N_102,N_106,cac1]
fixing: vNetworkInvest[2030,N_121,N_122,cac1]
fixing: vNetworkInvest[2030,N_106,N_110,cac1]
fixing: vNetworkInvest[2030,N_115,N_121,cac2]
fixing: vNetworkInvest[2030,N_103,N_124,cac1]
fixing: vNetworkInvest[2030,N_109,N_112,cac1]
fixing: vNetworkInvest[2030,N_115,N_124,cac1]
fixing: vNetworkInvest[2030,N_101,N_102,cac1]
fixing: vNetworkInvest[2030,N_120,N_123,cac1]
fixing: vNetworkInvest[2030,N_102,N_104,cac1]
fixing: vNetworkInvest[2030,N_111,N_113,cac1]
fixing: vNetworkInvest[2030,N_106,N_108,cac1]
fixing: vNetworkInvest[2030,N_118,N_121,cac1]
fixing: vNetworkInvest[2030,N_111,N_114,cac1]
fixing: vNetworkInvest[2030,N_105,N_110,cac1]
Number of fixed variables:  39
# ============================================================================= #
# ============================================================================= #
WARNING: Implicitly replacing the Component attribute dual (type=<class
'pyomo.core.base.suffix.Suffix'>) on block 'openStarNet - Open Version of the
StartNetLite Model (Long Term Transmission Expansion Planning) - Version 1.0.0
- January 16, 2023' with a new Component (type=<class
'pyomo.core.base.suffix.Suffix'>). This is usually indicative of a modelling
error. To avoid this warning, use block.del_component() and
block.add_component().
WARNING: Implicitly replacing the Component attribute rc (type=<class
'pyomo.core.base.suffix.Suffix'>) on block 'openStarNet - Open Version of the
StartNetLite Model (Long Term Transmission Expansion Planning) - Version 1.0.0
- January 16, 2023' with a new Component (type=<class
'pyomo.core.base.suffix.Suffix'>). This is usually indicative of a modelling
error. To avoid this warning, use block.del_component() and
block.add_component().
# ==========================================================
# = Solver Results                                         =
# ==========================================================
# ----------------------------------------------------------
#   Problem Information
# ----------------------------------------------------------
Problem: 
- Name: x1
  Lower bound: 138.58376171002251
  Upper bound: 138.58376171002251
  Number of objectives: 1
  Number of constraints: 1295843
  Number of variables: 755774
  Number of binary variables: 0
  Number of integer variables: 0
  Number of continuous variables: 755774
  Number of nonzeros: 3043233
  Sense: minimize
# ----------------------------------------------------------
#   Solver Information
# ----------------------------------------------------------
Solver: 
- Status: ok
  Return code: 0
  Message: Model was solved to optimality (subject to tolerances), and an optimal solution is available.
  Termination condition: optimal
  Termination message: Model was solved to optimality (subject to tolerances), and an optimal solution is available.
  Wall time: 12.60235595703125
  Error rc: 0
  Time: 24.623429536819458
# ----------------------------------------------------------
#   Solution Information
# ----------------------------------------------------------
Solution: 
- number of solutions: 0
  number of solutions displayed: 0
Solving                               ...  793 s
Objective function value                   138.58 M€
Objective function value                   138.58376171002251
Writing         cost summary results  ...  0 s
Writing           investment results  ...  0 s
Writing       energy balance results  ...  42 s
Writing    network operation results  ...  2 s
Writing generation operation results  ...  5 s
Writing        ESS operation results  ...  0 s
Writing             economic results  ...  1 s

 #### Academic research license - for non-commercial use only #### 

Elapsed time: 949 seconds
